120
150
55
53
58
48
44
50
60
49
49
40
52
60
60
59
44
56
42
47
42
60
60
52
51
57
58
43
49
55
42
51
56
47
47
53
46
51
50
60
40
57
44
47
58
46
52
40
58
50
59
51
53
42
53
45
58
59
48
55
43
47
54
51
40
55
41
48
56
60
48
46
49
42
59
44
55
51
42
44
55
55
44
49
55
59
40
47
46
50
55
53
57
51
40
47
52
58
49
58
58
60
47
52
54
43
44
43
46
48
59
45
56
49
42
49
44
57
53
44
46
51
